\* Problem: ULS *\

Minimize
 obj: + 0 x_1 + 0 x_3 + 2 x_4 + 3 x_5 + 10 x_6 + 4 x_7 + 2 x_8 + 8 x_9
 + 6 x_10 + 3 x_11 + 6 x_12 + 8 x_13 + 2 x_14 + 4 x_15 + 10 x_16
 + 3 x_17 + 2 x_18

Subject To
 r_1: - x_5 + x_4 + x_2 = 3
 r_2: - x_8 + x_7 + x_5 = 5
 r_3: - x_11 + x_10 + x_8 = 6
 r_4: - x_14 + x_13 + x_11 = 3
 r_5: - x_17 + x_16 + x_14 = 8
 r_6: + 25 x_6 - x_4 >= 0
 r_7: + 22 x_9 - x_7 >= 0
 r_8: + 17 x_12 - x_10 >= 0
 r_9: + 11 x_15 - x_13 >= 0
 r_10: + 8 x_18 - x_16 >= 0
 r_11: + x_17 = 0
 r_12: + x_2 = 0

Bounds
 0 <= x_3 <= 1
 0 <= x_6 <= 1
 0 <= x_9 <= 1
 0 <= x_12 <= 1
 0 <= x_15 <= 1
 0 <= x_18 <= 1

End
